

34 atoms
33 bonds
32 angles
31 dihedrals
1 atom types
33 bond types
32 angle types
31 dihedral types
34 ellipsoids

-32.8289 37.908 xlo xhi
-52.8145 17.9224 ylo yhi
-30.5153 40.2216 zlo zhi


Masses

1 1.0


Atoms

1 1 0.0 0.0 0.0 1 1 1
2 1 -0.12669432081380122 0.22019786314814127 3.296584633089403 1 1 1
3 1 -0.37120562136165536 0.07102532692128594 6.597502247451352 1 1 1
4 1 -0.7719602467505575 -0.6687657623815426 9.816066731554239 1 1 1
5 1 -0.933023746293356 -1.8241454108663833 12.927302234440349 1 1 1
6 1 -0.9684744788988681 -3.651393235704319 15.643220130002494 1 1 1
7 1 -0.8338480082729618 -5.967616169992831 18.047534188655828 1 1 1
8 1 -0.7272507205140369 -8.628632547678452 19.993548565732027 1 1 1
9 1 -0.4314366663192399 -11.557595227709875 21.50982897097268 1 1 1
10 1 0.1259675778333989 -14.704173787805738 22.356641832102536 1 1 1
11 1 0.5388038435458473 -17.93052107235358 22.53737606778578 1 1 1
12 1 0.9647476186093916 -21.18876865651096 22.33696467115533 1 1 1
13 1 1.555160363953489 -24.297546820689366 21.441568583747603 1 1 1
14 1 2.068905714482457 -27.154524732695066 19.970391135029416 1 1 1
15 1 2.624558418837768 -29.73548664492921 18.037896596858868 1 1 1
16 1 3.241423589835236 -31.805864214886967 15.582484951392168 1 1 1
17 1 3.8701459755813308 -33.52276694342852 12.88891428532007 1 1 1
18 1 4.511538567146022 -34.657780985122024 9.878204708684153 1 1 1
19 1 4.9748368289469 -35.11229364521197 6.668675165798689 1 1 1
20 1 5.371163703356084 -35.02155405688498 3.4118165789771906 1 1 1
21 1 5.79499441535971 -34.43201166272707 0.23358244008407647 1 1 1
22 1 5.993514360249943 -33.09631050467917 -2.7813605615231323 1 1 1
23 1 6.047524556303918 -31.36443189967106 -5.559552133757112 1 1 1
24 1 6.045137137153013 -29.179899833199876 -8.026783544922846 1 1 1
25 1 5.732370789577704 -26.637546523539772 -10.130761226436025 1 1 1
26 1 5.386135886128905 -23.73829245524997 -11.744164395840093 1 1 1
27 1 4.9548035552586605 -20.61636289584695 -12.643894657866628 1 1 1
28 1 4.437031506190378 -17.337457255013124 -12.831077884284925 1 1 1
29 1 3.7540348756648196 -14.096360024665923 -12.722491195642688 1 1 1
30 1 3.0215607906349624 -11.001057482226894 -11.882183215127725 1 1 1
31 1 2.267731965691894 -8.1485144632452 -10.435072530184348 1 1 1
32 1 1.6391564252339392 -5.507513711792225 -8.530629949525176 1 1 1
33 1 0.9084648443574219 -3.276933143394726 -6.238007813430993 1 1 1
34 1 0.24515004845456523 -1.5093538111454192 -3.5599768019677676 1 1 1


Ellipsoids

1 1.0 1.0000001 0.9999999 1.0 0.0 0.0 0.0
2 1.0 1.0000001 0.9999999 0.9899168345719046 0.049093479799246456 -0.022270054301585886 -0.13099059337886007
3 1.0 1.0000001 0.9999999 0.9585695771890006 0.12868001478146265 -0.015225212390530665 -0.2536809263448998
4 1.0 1.0000001 0.9999999 0.9049768987060227 0.1997391811442256 0.01691678020178602 -0.37527975547832026
5 1.0 1.0000001 0.9999999 0.8211339649793169 0.23999706740631913 0.10282078488343473 -0.5075118770922185
6 1.0 1.0000001 0.9999999 0.6919354608308582 0.2693758520188531 0.19001315447198228 -0.6423059781144119
7 1.0 1.0000001 0.9999999 0.6099036530048417 0.2717894352898246 0.3151420026222335 -0.6744134897074909
8 1.0 1.0000001 0.9999999 -0.46345101062297867 -0.25667975335959875 -0.4078173318531936 0.7436489015711227
9 1.0 1.0000001 0.9999999 0.36246314304276633 0.19407453871504857 0.5176486936016945 -0.7503301762361415
10 1.0 1.0000001 0.9999999 0.23103769968512575 0.11596251401961327 0.5987883500308387 -0.7580414161071956
11 1.0 1.0000001 0.9999999 0.0838312982483995 -0.004374270711945455 0.6814822128040193 -0.7270042453943883
12 1.0 1.0000001 0.9999999 -0.006123603412974023 -0.12063197963697683 0.7317128389046434 -0.67082542315584
13 1.0 1.0000001 0.9999999 -0.0926598802947831 -0.26168201304843786 0.7539929595868323 -0.595341320188817
14 1.0 1.0000001 0.9999999 -0.1361173628425087 -0.4180254275583456 0.7432752462704597 -0.5042506457398452
15 1.0 1.0000001 0.9999999 0.15629644894020278 0.5457794095401313 -0.7134428543332637 0.4107256380742671
16 1.0 1.0000001 0.9999999 0.13323408775744408 0.6794991218684624 -0.6498419148767703 0.3134248026380851
17 1.0 1.0000001 0.9999999 0.11096898562185595 0.807351841125848 -0.5446241421553916 0.19812479057973442
18 1.0 1.0000001 0.9999999 0.05069602141026934 0.8863715195619454 -0.42639848499662025 0.17308892141094548
19 1.0 1.0000001 0.9999999 -0.022759450935152987 0.9557071036606984 -0.2844454192238249 0.07208843796471122
20 1.0 1.0000001 0.9999999 -0.09747659177538082 0.9867925397888881 -0.1153711642049713 0.05855161776450814
21 1.0 1.0000001 0.9999999 -0.1806463559545145 0.9784234401888489 0.05708933693761537 0.0824334481712155
22 1.0 1.0000001 0.9999999 -0.2662373630297547 0.9397545033307293 0.19192697445765786 0.0956199585447851
23 1.0 1.0000001 0.9999999 -0.3320249737840066 0.8705156125354078 0.3428304225100644 0.1201219651745855
24 1.0 1.0000001 0.9999999 -0.3939054826134504 0.7749091629836131 0.4626571931542131 0.17407636690190306
25 1.0 1.0000001 0.9999999 -0.4352790237756502 0.6656429739293519 0.5548017754168947 0.24422651926780317
26 1.0 1.0000001 0.9999999 -0.4471260024436009 0.5663994118591574 0.6072952003931241 0.332359118671176
27 1.0 1.0000001 0.9999999 -0.43495921900569945 0.39915201897251185 0.6624141704256676 0.46118934329773303
28 1.0 1.0000001 0.9999999 -0.3916851858743276 0.2680122006684709 0.6798894019367361 0.5590192989455233
29 1.0 1.0000001 0.9999999 -0.34099960151100334 0.16140768858860055 0.6655811987320727 0.6439475892712073
30 1.0 1.0000001 0.9999999 -0.21811639747544162 0.03955141440447458 0.6191693298182477 0.7533194964843024
31 1.0 1.0000001 0.9999999 -0.08716164193715283 -0.07875067109356158 0.5449770073552332 0.8301814509077323
32 1.0 1.0000001 0.9999999 0.0479584340069307 -0.11627266635307305 0.4515927717687532 0.883314566931263
33 1.0 1.0000001 0.9999999 0.20257123535732335 -0.20008958599573068 0.36450678348489846 0.8866024232852955
34 1.0 1.0000001 0.9999999 0.34363934966360166 -0.1842075815841392 0.2507353251695133 0.8860650997312999


Bonds

1 1 1 2
2 2 2 3
3 3 3 4
4 4 4 5
5 5 5 6
6 6 6 7
7 7 7 8
8 8 8 9
9 9 9 10
10 10 10 11
11 11 11 12
12 12 12 13
13 13 13 14
14 14 14 15
15 15 15 16
16 16 16 17
17 17 17 18
18 18 18 19
19 19 19 20
20 20 20 21
21 21 21 22
22 22 22 23
23 23 23 24
24 24 24 25
25 25 25 26
26 26 26 27
27 27 27 28
28 28 28 29
29 29 29 30
30 30 30 31
31 31 31 32
32 32 32 33
33 33 33 34


Angles

1 1 1 2 3
2 2 2 3 4
3 3 3 4 5
4 4 4 5 6
5 5 5 6 7
6 6 6 7 8
7 7 7 8 9
8 8 8 9 10
9 9 9 10 11
10 10 10 11 12
11 11 11 12 13
12 12 12 13 14
13 13 13 14 15
14 14 14 15 16
15 15 15 16 17
16 16 16 17 18
17 17 17 18 19
18 18 18 19 20
19 19 19 20 21
20 20 20 21 22
21 21 21 22 23
22 22 22 23 24
23 23 23 24 25
24 24 24 25 26
25 25 25 26 27
26 26 26 27 28
27 27 27 28 29
28 28 28 29 30
29 29 29 30 31
30 30 30 31 32
31 31 31 32 33
32 32 32 33 34


Dihedrals

1 1 1 2 3 4
2 2 2 3 4 5
3 3 3 4 5 6
4 4 4 5 6 7
5 5 5 6 7 8
6 6 6 7 8 9
7 7 7 8 9 10
8 8 8 9 10 11
9 9 9 10 11 12
10 10 10 11 12 13
11 11 11 12 13 14
12 12 12 13 14 15
13 13 13 14 15 16
14 14 14 15 16 17
15 15 15 16 17 18
16 16 16 17 18 19
17 17 17 18 19 20
18 18 18 19 20 21
19 19 19 20 21 22
20 20 20 21 22 23
21 21 21 22 23 24
22 22 22 23 24 25
23 23 23 24 25 26
24 24 24 25 26 27
25 25 25 26 27 28
26 26 26 27 28 29
27 27 27 28 29 30
28 28 28 29 30 31
29 29 29 30 31 32
30 30 30 31 32 33
31 31 31 32 33 34

